101 658
1 50 76 77 3 79 34 78 29 24 54 4 25 55 39 67 23 56 75 72 21 73 74 22 41 57 15 43 42 14 44 38 86 16 61 91 100 37 98 85 93 59 92 96 99 95 97 87 2 58 40 26 12 80 68 33 81 51 9 35 71 65 66 20 30 70 31 88 7 82 48 47 19 62 10 90 32 63 11 64 49 36 46 8 45 17 84 5 60 83 18 52 89 6 94 13 53 101 28 27 69 
